NAME : 10_3_3_3_(02).dat
COMMENT : Henke, Speranza, Wäscher, 2015
TYPE : MCVRP
DIMENSION : 11
EDGE_WEIGHT_TYPE : DISTANCE_MATRIX
CAPACITY : 1000
VEHICLES : 2
PRODUCT TYPES : 3
COMPARTMENTS : 3
NODE_COORD_SECTION
1 50 50
2 84.6 48.57
3 14.78 61.46
4 34.91 72.66
5 42.57 79.34
6 94.66 1.88
7 47.91 27.38
8 23.03 22.36
9 23.74 53.45
10 21.67 33.98
11 43.11 56.71
DEMAND_SECTION
1 0 0 0
2 73 26 37
3 76 27 26
4 0 15 47
5 35 41 14
6 94 23 48
7 138 80 40
8 85 38 20
9 39 43 16
10 62 36 14
11 89 86 16
DEPOT_SECTION
1
EOF